19:29:48 | INFO    | Run started | run_id: SR_SV_WT_case3_P5_eps85 | log file: C:\Users\Asus\Documents\GitHub\logistics-model2\internal-logistics-model2\results\SR_SV_WT\case3\SR_SV_WT_case3_P5_eps85_2026_05_06_19_29.log
19:29:48 | INFO    | Products loaded | sheet=case3 | rows=15
19:29:48 | INFO    | Data loaded | |N|=31 |Nw|=30 |K|=1 |R|=1 |P|=5 | U=30
19:29:48 | INFO    | Big-M | time=491.0 precedence=480.0 wait=465.0 load_lb=20 load_ub=20
19:29:48 | INFO    | Set parameter Username
19:29:48 | INFO    | Set parameter LicenseID to value 2811848
19:29:48 | INFO    | Academic license - for non-commercial use only - expires 2027-04-22
19:29:48 | INFO    | Objective set | primary: min total_wait | tie-break weight on route_duration: 0.001
19:29:48 | INFO    | Constraint (3) added | route_duration <= 85
19:29:48 | INFO    | Constraints (4)-(9) added | route structure
19:29:48 | INFO    | Constraints (10)-(12) added | product assignment
19:29:48 | INFO    | Constraints (13)-(15) added | route timing
19:29:48 | INFO    | Constraints (16) added | time consistency
19:29:48 | INFO    | Constraints (17)-(19) added | service times
19:29:48 | INFO    | Constraints (20)-(22) added | precedence, route closure, waiting
19:29:48 | INFO    | Constraints (23)-(27) added | load propagation
19:29:48 | INFO    | Constraints (28)-(32) added | MTZ and route ordering
19:29:48 | INFO    | Set parameter TimeLimit to value 600
19:29:48 | INFO    | Set parameter MIPGap to value 0.01
19:29:48 | INFO    | Set parameter Presolve to value 2
19:29:48 | INFO    | Set parameter LogFile to value "C:\Users\Asus\Documents\GitHub\logistics-model2\internal-logistics-model2\results\SR_SV_WT\case3\result_SR_SV_WT_case3_P5_eps85_2026_05_06_19_29.log"
19:29:48 | INFO    | Solver configured | TimeLimit=600s | MIPGap=0.01 | gurobi_log=C:\Users\Asus\Documents\GitHub\logistics-model2\internal-logistics-model2\results\SR_SV_WT\case3\result_SR_SV_WT_case3_P5_eps85_2026_05_06_19_29.log
19:29:48 | INFO    | Optimization starting...
19:29:48 | INFO    | Gurobi Optimizer version 12.0.0 build v12.0.0rc1 (win64 - Windows 10.0 (19045.2))
19:29:48 | INFO    | 
19:29:48 | INFO    | CPU model: 12th Gen Intel(R) Core(TM) i7-12650H, instruction set [SSE2|AVX|AVX2]
19:29:48 | INFO    | Thread count: 10 physical cores, 16 logical processors, using up to 16 threads
19:29:48 | INFO    | 
19:29:48 | INFO    | Non-default parameters:
19:29:48 | INFO    | TimeLimit  600
19:29:48 | INFO    | MIPGap  0.01
19:29:48 | INFO    | Presolve  2
19:29:48 | INFO    | 
19:29:48 | INFO    | Optimize a model with 3852 rows, 1123 columns and 19430 nonzeros
19:29:48 | INFO    | Model fingerprint: 0x09a0fc0a
19:29:48 | INFO    | Variable types: 158 continuous, 965 integer (935 binary)
19:29:48 | INFO    | Coefficient statistics:
19:29:48 | INFO    |   Matrix range     [1e+00, 5e+02]
19:29:48 | INFO    |   Objective range  [1e-03, 1e+00]
19:29:48 | INFO    |   Bounds range     [1e+00, 3e+01]
19:29:48 | INFO    |   RHS range        [1e+00, 5e+02]
19:29:48 | INFO    | Presolve removed 3659 rows and 1042 columns
19:29:48 | INFO    | Presolve time: 0.01s
19:29:48 | INFO    | Presolved: 193 rows, 81 columns, 888 nonzeros
19:29:48 | INFO    | Variable types: 23 continuous, 58 integer (51 binary)
19:29:48 | INFO    | Root relaxation presolve removed 1 rows and 0 columns
19:29:48 | INFO    | Root relaxation presolved: 192 rows, 81 columns, 881 nonzeros
19:29:48 | INFO    | 
19:29:49 | INFO    | 
19:29:49 | INFO    | Root relaxation: objective 8.600000e+01, 35 iterations, 0.00 seconds (0.00 work units)
19:29:49 | INFO    | 
19:29:49 | INFO    |     Nodes    |    Current Node    |     Objective Bounds      |     Work
19:29:49 | INFO    |  Expl Unexpl |  Obj  Depth IntInf | Incumbent    BestBd   Gap | It/Node Time
19:29:49 | INFO    | 
19:29:49 | INFO    |      0     0   86.00000    0   14          -   86.00000      -     -    0s
19:29:49 | INFO    |      0     0   86.06900    0   14          -   86.06900      -     -    0s
19:29:49 | INFO    |      0     0   86.30617    0   25          -   86.30617      -     -    0s
19:29:49 | INFO    | H    0     0                     132.0850000  103.97914  21.3%     -    0s
19:29:49 | INFO    |      0     0  104.01004    0   22  132.08500  104.01004  21.3%     -    0s
19:29:49 | INFO    |      0     0  105.40724    0   18  132.08500  105.40724  20.2%     -    0s
19:29:49 | INFO    | H    0     0                     130.0850000  105.40724  19.0%     -    0s
19:29:49 | INFO    |      0     0  107.30275    0   21  130.08500  107.30275  17.5%     -    0s
19:29:49 | INFO    |      0     0  107.57550    0   17  130.08500  107.57550  17.3%     -    0s
19:29:49 | INFO    |      0     0  112.61092    0   13  130.08500  112.61092  13.4%     -    0s
19:29:49 | INFO    |      0     0  113.18542    0   13  130.08500  113.18542  13.0%     -    0s
19:29:49 | INFO    |      0     0  114.07650    0   17  130.08500  114.07650  12.3%     -    0s
19:29:49 | INFO    |      0     0  115.58399    0   17  130.08500  115.58399  11.1%     -    0s
19:29:49 | INFO    |      0     0  115.58399    0   19  130.08500  115.58399  11.1%     -    0s
19:29:49 | INFO    |      0     0  115.58399    0   20  130.08500  115.58399  11.1%     -    0s
19:29:49 | INFO    |      0     0  115.58399    0   18  130.08500  115.58399  11.1%     -    0s
19:29:49 | INFO    |      0     0  115.58399    0   20  130.08500  115.58399  11.1%     -    0s
19:29:49 | INFO    |      0     0  115.58399    0   22  130.08500  115.58399  11.1%     -    0s
19:29:49 | INFO    |      0     0  115.58399    0   22  130.08500  115.58399  11.1%     -    0s
19:29:49 | INFO    |      0     0  115.58399    0   13  130.08500  115.58399  11.1%     -    0s
19:29:49 | INFO    |      0     0  115.58399    0   21  130.08500  115.58399  11.1%     -    0s
19:29:49 | INFO    |      0     0  115.58399    0   18  130.08500  115.58399  11.1%     -    0s
19:29:49 | INFO    |      0     0  115.58399    0   15  130.08500  115.58399  11.1%     -    0s
19:29:49 | INFO    |      0     0  115.58399    0   15  130.08500  115.58399  11.1%     -    0s
19:29:49 | INFO    |      0     0  115.58399    0   15  130.08500  115.58399  11.1%     -    0s
19:29:49 | INFO    |      0     0  115.58399    0   15  130.08500  115.58399  11.1%     -    0s
19:29:49 | INFO    |      0     0  115.69093    0   18  130.08500  115.69093  11.1%     -    0s
19:29:49 | INFO    |      0     0  116.10826    0   17  130.08500  116.10826  10.7%     -    0s
19:29:49 | INFO    |      0     0  116.27842    0   16  130.08500  116.27842  10.6%     -    0s
19:29:49 | INFO    |      0     0  116.27842    0   16  130.08500  116.27842  10.6%     -    0s
19:29:49 | INFO    |      0     0  125.67788    0   16  130.08500  125.67788  3.39%     -    0s
19:29:49 | INFO    | 
19:29:49 | INFO    | Cutting planes:
19:29:49 | INFO    |   Gomory: 1
19:29:49 | INFO    |   Implied bound: 4
19:29:49 | INFO    |   MIR: 15
19:29:49 | INFO    |   RLT: 3
19:29:49 | INFO    |   Relax-and-lift: 2
19:29:49 | INFO    | 
19:29:49 | INFO    | Explored 1 nodes (519 simplex iterations) in 0.11 seconds (0.05 work units)
19:29:49 | INFO    | Thread count was 16 (of 16 available processors)
19:29:49 | INFO    | 
19:29:49 | INFO    | Solution count 2: 130.085 132.085 
19:29:49 | INFO    | 
19:29:49 | INFO    | Optimal solution found (tolerance 1.00e-02)
19:29:49 | INFO    | Best objective 1.300850000000e+02, best bound 1.300710000000e+02, gap 0.0108%
19:29:49 | INFO    | Solution found | total_wait=130.00 | route_duration=85.00
19:29:49 | INFO    | Objective=130.09 | runtime=0.11s | MIP Gap=0.01%
19:29:49 | INFO    | Generating Excel output | C:\Users\Asus\Documents\GitHub\logistics-model2\internal-logistics-model2\results\SR_SV_WT\case3\result_SR_SV_WT_case3_P5_eps85_2026_05_06_19_29.xlsx
19:29:49 | INFO    | Excel output written | 12 sheets | C:\Users\Asus\Documents\GitHub\logistics-model2\internal-logistics-model2\results\SR_SV_WT\case3\result_SR_SV_WT_case3_P5_eps85_2026_05_06_19_29.xlsx
19:29:49 | INFO    | Master Pareto updated | 15 total rows | C:\Users\Asus\Documents\GitHub\logistics-model2\internal-logistics-model2\results\master_pareto.xlsx
19:29:49 | INFO    | Run complete | run_id=SR_SV_WT_case3_P5_eps85
